benchmark/results/graph__15-1000-0.10-02_17/graph__15-1000-0.10-02_17_Quinton_Benders_aux.lp
\ This file has been generated by DOcplex
\ ENCODING=ISO-8859-1
\Problem name: Quinton Benders_auxiliary_sub

Minimize
 obj: 0.000950754179 pi_nr_a0 + 0.001045912815 pi_nr_a1
      + 0.001055638637 pi_nr_a2 + 0.001068376068 pi_nr_a3
      + 0.001125150631 pi_nr_a4 + 0.001233856497 pi_nr_a5
      + 0.000946969697 pi_nr_a6 + 0.001386620900 pi_nr_a7
      + 0.001077586207 pi_nr_a8 + 0.000831255195 pi_nr_a9
      + 0.000783085356 pi_nr_a10 + 0.000878734622 pi_nr_a11
      + 0.000904977376 pi_nr_a12 + 0.001335113485 pi_nr_a13
      + 0.000959692898 pi_nr_a14 + pi_p_a2_a0 + pi_p_a6_a4 + pi_p_a10_a4
      + pi_p_a12_a7 + pi_p_a14_a9 + pi_p_a11_a10 + pi_p_a9_a4 + pi_p_a13_a13
      + pi_p_a2_a2 + pi_p_a13_a7 + 1711.756690913292 pi_d_a0_a1_proc_0
      + 2553.999237526141 pi_d_a0_a1_proc_1 + 1.000762473859 pi_d_a1_a0_proc_0
      + 843.243309086708 pi_d_a1_a0_proc_1 + 2465.462474576693 pi_d_a0_a2_proc_0
      + 1267.320186379376 pi_d_a0_a2_proc_1
      + 1287.679813620625 pi_d_a2_a0_proc_0 + 89.537525423307 pi_d_a2_a0_proc_1
      + 1606.928643531559 pi_d_a0_a3_proc_0 + 1.000004755333 pi_d_a3_a0_proc_0
      + 2254.281278912689 pi_d_a0_a4_proc_0
      + 1267.945042684666 pi_d_a0_a4_proc_1
      + 1287.054957315334 pi_d_a4_a0_proc_0 + 300.718721087311 pi_d_a4_a0_proc_1
      + 2548.992842160852 pi_d_a0_a5_proc_0
      + 2224.071509332962 pi_d_a0_a5_proc_1 + 330.928490667038 pi_d_a5_a0_proc_0
      + 6.007157839148 pi_d_a5_a0_proc_1 + 2.526405831327 pi_d_a0_a6_proc_1
      + 945.544945881781 pi_d_a6_a0_proc_1 + 2554.374048532094 pi_d_a0_a7_proc_0
      + 958.045945077892 pi_d_a0_a7_proc_1 + 1596.954054922108 pi_d_a7_a0_proc_0
      + 0.625951467906 pi_d_a7_a0_proc_1 + 1606.928648286892 pi_d_a0_a8_proc_0
      + pi_d_a8_a0_proc_0 + 1606.928648286892 pi_d_a0_a9_proc_0
      + pi_d_a9_a0_proc_0 + 947.071351713108 pi_d_a0_a10_proc_1
      + pi_d_a10_a0_proc_1 + 9.945856640938 pi_d_a0_a11_proc_0
      + 1597.982791645954 pi_d_a11_a0_proc_0
      + 946.513490479827 pi_d_a0_a12_proc_1 + 1.557861233280 pi_d_a12_a0_proc_1
      + 1606.394727979495 pi_d_a0_a13_proc_0 + 1.533920307398 pi_d_a13_a0_proc_0
      + 318.576141669836 pi_d_a0_a14_proc_0
      + 1289.352506617056 pi_d_a14_a0_proc_0
      + 2135.393878057809 pi_d_a1_a2_proc_0
      + 2439.351433047124 pi_d_a1_a2_proc_1 + 115.648566952876 pi_d_a2_a1_proc_0
      + 419.606121942191 pi_d_a2_a1_proc_1 + 104.828805100259 pi_d_a1_a3_proc_0
      + 1.000000000000 pi_d_a3_a1_proc_0 + 2034.189655370491 pi_d_a1_a4_proc_0
      + 2549.953262329101 pi_d_a1_a4_proc_1 + 5.046737670899 pi_d_a4_a1_proc_0
      + 520.810344629509 pi_d_a4_a1_proc_1 + 1276.997406659393 pi_d_a1_a5_proc_0
      + 2454.175917018137 pi_d_a1_a5_proc_1 + 100.824082981863 pi_d_a5_a1_proc_0
      + 1278.002593340607 pi_d_a5_a1_proc_1
      + 2436.778086360400 pi_d_a1_a6_proc_1 + 13.393108539341 pi_d_a6_a1_proc_1
      + 2543.728336004107 pi_d_a1_a7_proc_0
      + 2449.500075736539 pi_d_a1_a7_proc_1 + 105.499924263461 pi_d_a7_a1_proc_0
      + 11.271663995893 pi_d_a7_a1_proc_1 + 104.828805100259 pi_d_a1_a8_proc_0
      + 1.000000000000 pi_d_a8_a1_proc_0 + 104.828805100259 pi_d_a1_a9_proc_0
      + 1.000000000000 pi_d_a9_a1_proc_0 + 2449.171194751078 pi_d_a1_a10_proc_1
      + 1.000000148662 pi_d_a10_a1_proc_1 + 104.696886910892 pi_d_a1_a11_proc_0
      + 1.131918189367 pi_d_a11_a1_proc_0 + 2446.129066428972 pi_d_a1_a12_proc_1
      + 4.042128470769 pi_d_a12_a1_proc_1 + 104.226610418893 pi_d_a1_a13_proc_0
      + 1.602194681366 pi_d_a13_a1_proc_0 + 84.291108905071 pi_d_a1_a14_proc_0
      + 21.537696195188 pi_d_a14_a1_proc_0 + 2135.606531643751 pi_d_a2_a3_proc_0
      + 10.607108266675 pi_d_a3_a2_proc_0 + 2154.091160401317 pi_d_a2_a4_proc_0
      + 629.469932549760 pi_d_a2_a4_proc_1 + 1925.530067450240 pi_d_a4_a2_proc_0
      + 400.908839598683 pi_d_a4_a2_proc_1 + 2469.682797155489 pi_d_a2_a5_proc_0
      + 1606.476472704066 pi_d_a2_a5_proc_1 + 948.523527295934 pi_d_a5_a2_proc_0
      + 85.317202844511 pi_d_a5_a2_proc_1 + 3.035462091492 pi_d_a2_a6_proc_1
      + 406.750897998082 pi_d_a6_a2_proc_1 + 2138.789681294908 pi_d_a2_a7_proc_0
      + 4.176586217174 pi_d_a2_a7_proc_1 + 2550.823413782826 pi_d_a7_a2_proc_0
      + 416.210318705091 pi_d_a7_a2_proc_1 + 219.599646294442 pi_d_a2_a8_proc_0
      + 1926.613993615984 pi_d_a8_a2_proc_0 + 0.848268961073 pi_d_a2_a9_proc_0
      + 2145.365370949352 pi_d_a9_a2_proc_0
      + 408.890539604026 pi_d_a2_a10_proc_1 + 0.895820485548 pi_d_a10_a2_proc_1
      + 0.510925524562 pi_d_a2_a11_proc_0 + 2145.702714385863 pi_d_a11_a2_proc_0
      + 0.000000098282 pi_d_a2_a12_proc_1 + 409.786359991292 pi_d_a12_a2_proc_1
      + 1925.489614235124 pi_d_a2_a13_proc_0
      + 220.724025675302 pi_d_a13_a2_proc_0
      + 2145.222003218112 pi_d_a2_a14_proc_0 + 0.991636692313 pi_d_a14_a2_proc_0
      + 1934.407587941131 pi_d_a3_a4_proc_0
      + 1271.992684540997 pi_d_a3_a5_proc_0 + pi_d_a5_a3_proc_0
      + 2543.292714145979 pi_d_a3_a7_proc_0 + 1.106741021330 pi_d_a7_a3_proc_0
      + pi_d_a8_a3_proc_0 + pi_d_a9_a3_proc_0
      - 0.000000000000 pi_d_a3_a11_proc_0 + pi_d_a11_a3_proc_0
      - 0.502014098456 pi_d_a3_a13_proc_0 + 1.502014098456 pi_d_a13_a3_proc_0
      - 0.533203125000 pi_d_a3_a14_proc_0 + 1.533203125000 pi_d_a14_a3_proc_0
      + 2553.980965801559 pi_d_a4_a5_proc_0
      + 1902.580693319431 pi_d_a4_a5_proc_1 + 652.419306680569 pi_d_a5_a4_proc_0
      + 1.019034198441 pi_d_a5_a4_proc_1 + 0.002449807292 pi_d_a4_a6_proc_1
      + 621.589962251577 pi_d_a6_a4_proc_1 + 2543.389639182274 pi_d_a4_a7_proc_0
      + 620.582596073835 pi_d_a4_a7_proc_1 + 1934.417403926165 pi_d_a7_a4_proc_0
      + 11.610360817726 pi_d_a7_a4_proc_1 + 1933.407587941131 pi_d_a4_a8_proc_0
      + pi_d_a8_a4_proc_0 + 2.553034718475 pi_d_a4_a9_proc_0
      + 1931.854553222656 pi_d_a9_a4_proc_0
      + 618.557847013665 pi_d_a4_a10_proc_1 + 3.034565045205 pi_d_a10_a4_proc_1
      + 1920.518615723198 pi_d_a4_a11_proc_0
      + 13.888972217933 pi_d_a11_a4_proc_0 + 617.560681446611 pi_d_a4_a12_proc_1
      + 4.031730612258 pi_d_a12_a4_proc_1 - 0.495384216199 pi_d_a4_a13_proc_0
      + 1934.902972157330 pi_d_a13_a4_proc_0
      + 1932.400557705494 pi_d_a4_a14_proc_0 + 2.007030235637 pi_d_a14_a4_proc_0
      + 1281.497574461546 pi_d_a5_a6_proc_1 + 1.509740997457 pi_d_a6_a5_proc_1
      + 1262.363394378741 pi_d_a5_a7_proc_0 + 0.971254670435 pi_d_a5_a7_proc_1
      + 2554.028745329565 pi_d_a7_a5_proc_0
      + 1292.636605621259 pi_d_a7_a5_proc_1
      + 1271.992684540997 pi_d_a5_a8_proc_0 + pi_d_a8_a5_proc_0
      + 628.774063353091 pi_d_a5_a9_proc_0 + 644.218621187907 pi_d_a9_a5_proc_0
      + 1282.007315459003 pi_d_a5_a10_proc_1 + pi_d_a10_a5_proc_1
      + 8.036449596435 pi_d_a5_a11_proc_0 + 1264.956234944562 pi_d_a11_a5_proc_0
      + 4.963554783109 pi_d_a5_a12_proc_1 + 1278.043760675894 pi_d_a12_a5_proc_1
      + 1257.045177738081 pi_d_a5_a13_proc_0
      + 15.947506802916 pi_d_a13_a5_proc_0 + 321.769823764945 pi_d_a5_a14_proc_0
      + 951.222860776052 pi_d_a14_a5_proc_0 + 1.000447176441 pi_d_a6_a7_proc_1
      + 10.600097656250 pi_d_a7_a6_proc_1 + 0.228057861328 pi_d_a6_a10_proc_1
      + 0.771942138672 pi_d_a10_a6_proc_1 + pi_d_a12_a6_proc_1
      + 2.599785848057 pi_d_a7_a8_proc_0 + 2541.799669319252 pi_d_a8_a7_proc_0
      + 2535.857432741274 pi_d_a7_a9_proc_0 + 8.542022426035 pi_d_a9_a7_proc_0
      + 10.632400333884 pi_d_a7_a10_proc_1 + 0.968144498807 pi_d_a10_a7_proc_1
      + 2538.410412765703 pi_d_a7_a11_proc_0 + 5.989042401606 pi_d_a11_a7_proc_0
      + 10.600240372162 pi_d_a7_a12_proc_1 + 1.000304460529 pi_d_a12_a7_proc_1
      + 2543.399455167309 pi_d_a7_a13_proc_0 + 1.000000000000 pi_d_a13_a7_proc_0
      + 2543.399455167309 pi_d_a7_a14_proc_0 + 1.000000000000 pi_d_a14_a7_proc_0
      + 0.509979248047 pi_d_a8_a9_proc_0 + 0.490020751953 pi_d_a9_a8_proc_0
      + 0.508002377363 pi_d_a8_a11_proc_0 + 0.491997622637 pi_d_a11_a8_proc_0
      + 0.000007629390 pi_d_a8_a13_proc_0 + 0.999992370610 pi_d_a13_a8_proc_0
      - 0.031249933628 pi_d_a8_a14_proc_0 + 1.031249933628 pi_d_a14_a8_proc_0
      + pi_d_a11_a9_proc_0 + 0.015808338547 pi_d_a9_a13_proc_0
      + 0.984191661453 pi_d_a13_a9_proc_0 + pi_d_a14_a9_proc_0
      - 0.031249999942 pi_d_a10_a12_proc_1 + 1.031249999942 pi_d_a12_a10_proc_1
      + 0.333770751953 pi_d_a11_a13_proc_0 + 0.666229248047 pi_d_a13_a11_proc_0
      + pi_d_a14_a11_proc_0 + 0.509948730469 pi_d_a13_a14_proc_0
      + 0.490051269531 pi_d_a14_a13_proc_0 + 0.370818853451 pi_y2_a0_proc_0
      + 0.629181146549 pi_y2_a0_proc_1 + 0.958955048904 pi_y2_a1_proc_0
      + 0.041044951096 pi_y2_a1_proc_1 + 0.160057306221 pi_y2_a2_proc_0
      + 0.839942693779 pi_y2_a2_proc_1 + pi_y2_a3_proc_0
      + 0.242988415058 pi_y2_a4_proc_0 + 0.757011584942 pi_y2_a4_proc_1
      + 0.501960577705 pi_y2_a5_proc_0 + 0.498039422295 pi_y2_a5_proc_1
      + pi_y2_a6_proc_1 + 0.004150565714 pi_y2_a7_proc_0
      + 0.995849434286 pi_y2_a7_proc_1 + pi_y2_a8_proc_0 + pi_y2_a9_proc_0
      + pi_y2_a10_proc_1 + pi_y2_a11_proc_0 + pi_y2_a12_proc_1
      + pi_y2_a13_proc_0 + pi_y2_a14_proc_0
Subject To
 c1: 0.000906618314 pi_nr_a0 + 0.001055966209 pi_nr_a1 + 0.000935453695 pi_nr_a2
     + 0.001068376068 pi_nr_a3 + 0.001213592233 pi_nr_a4
     + 0.000972762646 pi_nr_a5 + 0.000946969697 pi_nr_a6
     + 0.001388888889 pi_nr_a7 + 0.001077586207 pi_nr_a8
     + 0.000831255195 pi_nr_a9 + 0.000783085356 pi_nr_a10
     + 0.000878734622 pi_nr_a11 + 0.000904977376 pi_nr_a12
     + 0.001335113485 pi_nr_a13 + 0.000959692898 pi_nr_a14 + pi_p_a2_a0
     + pi_p_a6_a4 + pi_p_a10_a4 + pi_p_a12_a7 + pi_p_a14_a9 + pi_p_a11_a10
     + pi_p_a9_a4 + pi_p_a13_a13 + pi_p_a2_a2 + pi_p_a13_a7
     + 2554 pi_d_a0_a1_proc_0 + 2554 pi_d_a0_a1_proc_1 + pi_d_a1_a0_proc_0
     + pi_d_a1_a0_proc_1 + 2554 pi_d_a0_a2_proc_0 + 2555 pi_d_a2_a0_proc_0
     + pi_d_a2_a0_proc_1 + 2554 pi_d_a0_a3_proc_0 + pi_d_a3_a0_proc_0
     + 2555 pi_d_a0_a4_proc_0 + pi_d_a0_a4_proc_1 + 2554 pi_d_a4_a0_proc_0
     + 2554 pi_d_a0_a5_proc_0 + 2554 pi_d_a0_a5_proc_1 + pi_d_a5_a0_proc_0
     + pi_d_a5_a0_proc_1 + pi_d_a6_a0_proc_1 + 2554 pi_d_a0_a7_proc_0
     + 2555 pi_d_a7_a0_proc_0 + pi_d_a7_a0_proc_1 + 2554 pi_d_a0_a8_proc_0
     + pi_d_a8_a0_proc_0 + 2554 pi_d_a0_a9_proc_0 + pi_d_a9_a0_proc_0
     + pi_d_a10_a0_proc_1 + 2555 pi_d_a11_a0_proc_0 - pi_d_a0_a12_proc_1
     + 2 pi_d_a12_a0_proc_1 + 2553 pi_d_a0_a13_proc_0 + 2 pi_d_a13_a0_proc_0
     - pi_d_a0_a14_proc_0 + 2556 pi_d_a14_a0_proc_0 + 2554 pi_d_a1_a2_proc_0
     + 2554 pi_d_a1_a2_proc_1 + pi_d_a2_a1_proc_0 + pi_d_a2_a1_proc_1
     + pi_d_a3_a1_proc_0 + 2555 pi_d_a1_a4_proc_0 + 2555 pi_d_a1_a4_proc_1
     + 2554 pi_d_a1_a5_proc_1 + pi_d_a5_a1_proc_0 + 2555 pi_d_a5_a1_proc_1
     + 2554 pi_d_a1_a6_proc_1 + pi_d_a6_a1_proc_1 + 2554 pi_d_a1_a7_proc_0
     + 2554 pi_d_a1_a7_proc_1 + pi_d_a7_a1_proc_0 + pi_d_a7_a1_proc_1
     + pi_d_a8_a1_proc_0 + pi_d_a9_a1_proc_0 + 2554 pi_d_a1_a10_proc_1
     + pi_d_a10_a1_proc_1 + pi_d_a11_a1_proc_0 + 2553 pi_d_a1_a12_proc_1
     + 2 pi_d_a12_a1_proc_1 - pi_d_a1_a13_proc_0 + 2 pi_d_a13_a1_proc_0
     - pi_d_a1_a14_proc_0 + 2 pi_d_a14_a1_proc_0 + 2555 pi_d_a2_a3_proc_0
     + 2555 pi_d_a2_a4_proc_0 + pi_d_a2_a4_proc_1 + 2554 pi_d_a4_a2_proc_0
     + 2555 pi_d_a2_a5_proc_0 + 2555 pi_d_a2_a5_proc_1 + pi_d_a2_a6_proc_1
     + 2555 pi_d_a2_a7_proc_0 + pi_d_a2_a7_proc_1 + 2554 pi_d_a7_a2_proc_0
     + 2555 pi_d_a8_a2_proc_0 + pi_d_a2_a9_proc_0 + 2554 pi_d_a9_a2_proc_0
     + pi_d_a10_a2_proc_1 + pi_d_a2_a11_proc_0 + 2554 pi_d_a11_a2_proc_0
     + pi_d_a12_a2_proc_1 + 2554 pi_d_a2_a13_proc_0 + pi_d_a13_a2_proc_0
     + 2554 pi_d_a2_a14_proc_0 + pi_d_a14_a2_proc_0 + 2555 pi_d_a3_a4_proc_0
     + pi_d_a5_a3_proc_0 + 2553 pi_d_a3_a7_proc_0 + 2 pi_d_a7_a3_proc_0
     + pi_d_a8_a3_proc_0 + pi_d_a9_a3_proc_0 + pi_d_a11_a3_proc_0
     - pi_d_a3_a13_proc_0 + 2 pi_d_a13_a3_proc_0 - pi_d_a3_a14_proc_0
     + 2 pi_d_a14_a3_proc_0 + 2554 pi_d_a4_a5_proc_0 + 2554 pi_d_a4_a5_proc_1
     + pi_d_a5_a4_proc_0 + pi_d_a5_a4_proc_1 + pi_d_a6_a4_proc_1
     + 2554 pi_d_a4_a7_proc_0 + 2555 pi_d_a7_a4_proc_0 + pi_d_a7_a4_proc_1
     + 2554 pi_d_a4_a8_proc_0 + pi_d_a8_a4_proc_0 + 2555 pi_d_a9_a4_proc_0
     + pi_d_a10_a4_proc_1 + 2554 pi_d_a4_a11_proc_0 + pi_d_a11_a4_proc_0
     - pi_d_a4_a12_proc_1 + 2 pi_d_a12_a4_proc_1 - pi_d_a4_a13_proc_0
     + 2556 pi_d_a13_a4_proc_0 + 2553 pi_d_a4_a14_proc_0 + 2 pi_d_a14_a4_proc_0
     + 2553 pi_d_a5_a6_proc_1 + 2 pi_d_a6_a5_proc_1 + pi_d_a5_a7_proc_0
     + pi_d_a5_a7_proc_1 + 2554 pi_d_a7_a5_proc_0 + 2554 pi_d_a7_a5_proc_1
     + pi_d_a8_a5_proc_0 + pi_d_a5_a9_proc_0 + 2554 pi_d_a5_a10_proc_1
     + pi_d_a10_a5_proc_1 + pi_d_a5_a11_proc_0 + 2555 pi_d_a12_a5_proc_1
     + pi_d_a13_a5_proc_0 + pi_d_a14_a5_proc_0 + pi_d_a6_a7_proc_1
     + pi_d_a10_a6_proc_1 + pi_d_a12_a6_proc_1 + 2555 pi_d_a8_a7_proc_0
     + 2554 pi_d_a7_a9_proc_0 + pi_d_a9_a7_proc_0 + pi_d_a10_a7_proc_1
     + 2554 pi_d_a7_a11_proc_0 + pi_d_a11_a7_proc_0 + pi_d_a12_a7_proc_1
     + 2554 pi_d_a7_a13_proc_0 + pi_d_a13_a7_proc_0 + 2554 pi_d_a7_a14_proc_0
     + pi_d_a14_a7_proc_0 + pi_d_a8_a9_proc_0 + pi_d_a8_a11_proc_0
     + pi_d_a13_a8_proc_0 + pi_d_a14_a8_proc_0 + pi_d_a11_a9_proc_0
     + pi_d_a13_a9_proc_0 + pi_d_a14_a9_proc_0 + pi_d_a12_a10_proc_1
     + pi_d_a13_a11_proc_0 + pi_d_a14_a11_proc_0 + pi_d_a13_a14_proc_0
     + pi_y2_a0_proc_1 + pi_y2_a1_proc_0 + pi_y2_a2_proc_1 + pi_y2_a3_proc_0
     + pi_y2_a4_proc_1 + pi_y2_a5_proc_0 + pi_y2_a6_proc_1 + pi_y2_a7_proc_1
     + pi_y2_a8_proc_0 + pi_y2_a9_proc_0 + pi_y2_a10_proc_1 + pi_y2_a11_proc_0
     + pi_y2_a12_proc_1 + pi_y2_a13_proc_0 + pi_y2_a14_proc_0 = 0.000088370449
 c2: pi_nr_a0 + pi_nr_a1 + pi_nr_a2 + pi_nr_a3 + pi_nr_a4 + pi_nr_a5 + pi_nr_a6
     + pi_nr_a7 + pi_nr_a8 + pi_nr_a9 + pi_nr_a10 + pi_nr_a11 + pi_nr_a12
     + pi_nr_a13 + pi_nr_a14 - pi_y1_a0 - pi_y1_a1 - pi_y1_a2 - pi_y1_a3
     - pi_y1_a4 - pi_y1_a5 - pi_y1_a6 - pi_y1_a7 - pi_y1_a8 - pi_y1_a9
     - pi_y1_a10 - pi_y1_a11 - pi_y1_a12 - pi_y1_a13 - pi_y1_a14 >= 1
 c3: pi_p_a0_a1 - pi_p_a2_a0 - pi_p_a4_a0 + pi_d_a0_a1_proc_0
     + pi_d_a0_a1_proc_1 - pi_d_a1_a0_proc_0 - pi_d_a1_a0_proc_1
     + pi_d_a0_a2_proc_0 + pi_d_a0_a2_proc_1 - pi_d_a2_a0_proc_0
     - pi_d_a2_a0_proc_1 + pi_d_a0_a3_proc_0 - pi_d_a3_a0_proc_0
     + pi_d_a0_a4_proc_0 + pi_d_a0_a4_proc_1 - pi_d_a4_a0_proc_0
     - pi_d_a4_a0_proc_1 + pi_d_a0_a5_proc_0 + pi_d_a0_a5_proc_1
     - pi_d_a5_a0_proc_0 - pi_d_a5_a0_proc_1 + pi_d_a0_a6_proc_1
     - pi_d_a6_a0_proc_1 + pi_d_a0_a7_proc_0 + pi_d_a0_a7_proc_1
     - pi_d_a7_a0_proc_0 - pi_d_a7_a0_proc_1 + pi_d_a0_a8_proc_0
     - pi_d_a8_a0_proc_0 + pi_d_a0_a9_proc_0 - pi_d_a9_a0_proc_0
     + pi_d_a0_a10_proc_1 - pi_d_a10_a0_proc_1 + pi_d_a0_a11_proc_0
     - pi_d_a11_a0_proc_0 + pi_d_a0_a12_proc_1 - pi_d_a12_a0_proc_1
     + pi_d_a0_a13_proc_0 - pi_d_a13_a0_proc_0 + pi_d_a0_a14_proc_0
     - pi_d_a14_a0_proc_0 >= 0
 c4: 975 pi_p_a0_a1 + 975 pi_d_a0_a1_proc_0 + 975 pi_d_a0_a2_proc_0
     + 975 pi_d_a0_a3_proc_0 + 975 pi_d_a0_a4_proc_0 + 975 pi_d_a0_a5_proc_0
     + 975 pi_d_a0_a7_proc_0 + 975 pi_d_a0_a8_proc_0 + 975 pi_d_a0_a9_proc_0
     + 975 pi_d_a0_a11_proc_0 + 975 pi_d_a0_a13_proc_0 + 975 pi_d_a0_a14_proc_0
     + pi_y1_a0 + pi_y2_a0_proc_0 >= 0
 c5: 1103 pi_p_a0_a1 + 1103 pi_d_a0_a1_proc_1 + 1103 pi_d_a0_a2_proc_1
     + 1103 pi_d_a0_a4_proc_1 + 1103 pi_d_a0_a5_proc_1 + 1103 pi_d_a0_a6_proc_1
     + 1103 pi_d_a0_a7_proc_1 + 1103 pi_d_a0_a10_proc_1
     + 1103 pi_d_a0_a12_proc_1 + pi_y1_a0 + pi_y2_a0_proc_1 >= 0
 c6: - pi_p_a0_a1 + pi_p_a1_a3 - pi_d_a0_a1_proc_0 - pi_d_a0_a1_proc_1
     + pi_d_a1_a0_proc_0 + pi_d_a1_a0_proc_1 + pi_d_a1_a2_proc_0
     + pi_d_a1_a2_proc_1 - pi_d_a2_a1_proc_0 - pi_d_a2_a1_proc_1
     + pi_d_a1_a3_proc_0 - pi_d_a3_a1_proc_0 + pi_d_a1_a4_proc_0
     + pi_d_a1_a4_proc_1 - pi_d_a4_a1_proc_0 - pi_d_a4_a1_proc_1
     + pi_d_a1_a5_proc_0 + pi_d_a1_a5_proc_1 - pi_d_a5_a1_proc_0
     - pi_d_a5_a1_proc_1 + pi_d_a1_a6_proc_1 - pi_d_a6_a1_proc_1
     + pi_d_a1_a7_proc_0 + pi_d_a1_a7_proc_1 - pi_d_a7_a1_proc_0
     - pi_d_a7_a1_proc_1 + pi_d_a1_a8_proc_0 - pi_d_a8_a1_proc_0
     + pi_d_a1_a9_proc_0 - pi_d_a9_a1_proc_0 + pi_d_a1_a10_proc_1
     - pi_d_a10_a1_proc_1 + pi_d_a1_a11_proc_0 - pi_d_a11_a1_proc_0
     + pi_d_a1_a12_proc_1 - pi_d_a12_a1_proc_1 + pi_d_a1_a13_proc_0
     - pi_d_a13_a1_proc_0 + pi_d_a1_a14_proc_0 - pi_d_a14_a1_proc_0 >= 0
 c7: 947 pi_p_a1_a3 + 947 pi_d_a1_a0_proc_0 + 947 pi_d_a1_a2_proc_0
     + 947 pi_d_a1_a3_proc_0 + 947 pi_d_a1_a4_proc_0 + 947 pi_d_a1_a5_proc_0
     + 947 pi_d_a1_a7_proc_0 + 947 pi_d_a1_a8_proc_0 + 947 pi_d_a1_a9_proc_0
     + 947 pi_d_a1_a11_proc_0 + 947 pi_d_a1_a13_proc_0 + 947 pi_d_a1_a14_proc_0
     + pi_y1_a1 + pi_y2_a1_proc_0 >= 0
 c8: 1233 pi_p_a1_a3 + 1233 pi_d_a1_a0_proc_1 + 1233 pi_d_a1_a2_proc_1
     + 1233 pi_d_a1_a4_proc_1 + 1233 pi_d_a1_a5_proc_1 + 1233 pi_d_a1_a6_proc_1
     + 1233 pi_d_a1_a7_proc_1 + 1233 pi_d_a1_a10_proc_1
     + 1233 pi_d_a1_a12_proc_1 + pi_y1_a1 + pi_y2_a1_proc_1 >= 0
 c9: pi_p_a2_a0 - pi_p_a7_a2 - pi_d_a0_a2_proc_0 - pi_d_a0_a2_proc_1
     + pi_d_a2_a0_proc_0 + pi_d_a2_a0_proc_1 - pi_d_a1_a2_proc_0
     - pi_d_a1_a2_proc_1 + pi_d_a2_a1_proc_0 + pi_d_a2_a1_proc_1
     + pi_d_a2_a3_proc_0 - pi_d_a3_a2_proc_0 + pi_d_a2_a4_proc_0
     + pi_d_a2_a4_proc_1 - pi_d_a4_a2_proc_0 - pi_d_a4_a2_proc_1
     + pi_d_a2_a5_proc_0 + pi_d_a2_a5_proc_1 - pi_d_a5_a2_proc_0
     - pi_d_a5_a2_proc_1 + pi_d_a2_a6_proc_1 - pi_d_a6_a2_proc_1
     + pi_d_a2_a7_proc_0 + pi_d_a2_a7_proc_1 - pi_d_a7_a2_proc_0
     - pi_d_a7_a2_proc_1 + pi_d_a2_a8_proc_0 - pi_d_a8_a2_proc_0
     + pi_d_a2_a9_proc_0 - pi_d_a9_a2_proc_0 + pi_d_a2_a10_proc_1
     - pi_d_a10_a2_proc_1 + pi_d_a2_a11_proc_0 - pi_d_a11_a2_proc_0
     + pi_d_a2_a12_proc_1 - pi_d_a12_a2_proc_1 + pi_d_a2_a13_proc_0
     - pi_d_a13_a2_proc_0 + pi_d_a2_a14_proc_0 - pi_d_a14_a2_proc_0 >= 0
 c10: 593 pi_p_a2_a0 + 593 pi_p_a2_a2 + 593 pi_d_a2_a0_proc_0
      + 593 pi_d_a2_a1_proc_0 + 593 pi_d_a2_a3_proc_0 + 593 pi_d_a2_a4_proc_0
      + 593 pi_d_a2_a5_proc_0 + 593 pi_d_a2_a7_proc_0 + 593 pi_d_a2_a8_proc_0
      + 593 pi_d_a2_a9_proc_0 + 593 pi_d_a2_a11_proc_0 + 593 pi_d_a2_a13_proc_0
      + 593 pi_d_a2_a14_proc_0 + pi_y1_a2 + pi_y2_a2_proc_0 >= 0
 c11: 1069 pi_p_a2_a0 + 1069 pi_p_a2_a2 + 1069 pi_d_a2_a0_proc_1
      + 1069 pi_d_a2_a1_proc_1 + 1069 pi_d_a2_a4_proc_1 + 1069 pi_d_a2_a5_proc_1
      + 1069 pi_d_a2_a6_proc_1 + 1069 pi_d_a2_a7_proc_1
      + 1069 pi_d_a2_a10_proc_1 + 1069 pi_d_a2_a12_proc_1 + pi_y1_a2
      + pi_y2_a2_proc_1 >= 0
 c12: - pi_p_a1_a3 + pi_p_a3_a5 + pi_p_a3_a9 - pi_d_a0_a3_proc_0
      + pi_d_a3_a0_proc_0 - pi_d_a1_a3_proc_0 + pi_d_a3_a1_proc_0
      - pi_d_a2_a3_proc_0 + pi_d_a3_a2_proc_0 + pi_d_a3_a4_proc_0
      - pi_d_a4_a3_proc_0 + pi_d_a3_a5_proc_0 - pi_d_a5_a3_proc_0
      + pi_d_a3_a7_proc_0 - pi_d_a7_a3_proc_0 + pi_d_a3_a8_proc_0
      - pi_d_a8_a3_proc_0 + pi_d_a3_a9_proc_0 - pi_d_a9_a3_proc_0
      + pi_d_a3_a11_proc_0 - pi_d_a11_a3_proc_0 + pi_d_a3_a13_proc_0
      - pi_d_a13_a3_proc_0 + pi_d_a3_a14_proc_0 - pi_d_a14_a3_proc_0 >= 0
 c13: 936 pi_p_a3_a5 + 936 pi_p_a3_a9 + 936 pi_d_a3_a0_proc_0
      + 936 pi_d_a3_a1_proc_0 + 936 pi_d_a3_a2_proc_0 + 936 pi_d_a3_a4_proc_0
      + 936 pi_d_a3_a5_proc_0 + 936 pi_d_a3_a7_proc_0 + 936 pi_d_a3_a8_proc_0
      + 936 pi_d_a3_a9_proc_0 + 936 pi_d_a3_a11_proc_0 + 936 pi_d_a3_a13_proc_0
      + 936 pi_d_a3_a14_proc_0 + pi_y1_a3 + pi_y2_a3_proc_0 >= 0
 c14: pi_p_a4_a0 - pi_p_a6_a4 - pi_p_a10_a4 - pi_p_a9_a4 - pi_d_a0_a4_proc_0
      - pi_d_a0_a4_proc_1 + pi_d_a4_a0_proc_0 + pi_d_a4_a0_proc_1
      - pi_d_a1_a4_proc_0 - pi_d_a1_a4_proc_1 + pi_d_a4_a1_proc_0
      + pi_d_a4_a1_proc_1 - pi_d_a2_a4_proc_0 - pi_d_a2_a4_proc_1
      + pi_d_a4_a2_proc_0 + pi_d_a4_a2_proc_1 - pi_d_a3_a4_proc_0
      + pi_d_a4_a3_proc_0 + pi_d_a4_a5_proc_0 + pi_d_a4_a5_proc_1
      - pi_d_a5_a4_proc_0 - pi_d_a5_a4_proc_1 + pi_d_a4_a6_proc_1
      - pi_d_a6_a4_proc_1 + pi_d_a4_a7_proc_0 + pi_d_a4_a7_proc_1
      - pi_d_a7_a4_proc_0 - pi_d_a7_a4_proc_1 + pi_d_a4_a8_proc_0
      - pi_d_a8_a4_proc_0 + pi_d_a4_a9_proc_0 - pi_d_a9_a4_proc_0
      + pi_d_a4_a10_proc_1 - pi_d_a10_a4_proc_1 + pi_d_a4_a11_proc_0
      - pi_d_a11_a4_proc_0 + pi_d_a4_a12_proc_1 - pi_d_a12_a4_proc_1
      + pi_d_a4_a13_proc_0 - pi_d_a13_a4_proc_0 + pi_d_a4_a14_proc_0
      - pi_d_a14_a4_proc_0 >= 0
 c15: 1177 pi_p_a4_a0 + 1177 pi_d_a4_a0_proc_0 + 1177 pi_d_a4_a1_proc_0
      + 1177 pi_d_a4_a2_proc_0 + 1177 pi_d_a4_a3_proc_0 + 1177 pi_d_a4_a5_proc_0
      + 1177 pi_d_a4_a7_proc_0 + 1177 pi_d_a4_a8_proc_0 + 1177 pi_d_a4_a9_proc_0
      + 1177 pi_d_a4_a11_proc_0 + 1177 pi_d_a4_a13_proc_0
      + 1177 pi_d_a4_a14_proc_0 + pi_y1_a4 + pi_y2_a4_proc_0 >= 0
 c16: 824 pi_p_a4_a0 + 824 pi_d_a4_a0_proc_1 + 824 pi_d_a4_a1_proc_1
      + 824 pi_d_a4_a2_proc_1 + 824 pi_d_a4_a5_proc_1 + 824 pi_d_a4_a6_proc_1
      + 824 pi_d_a4_a7_proc_1 + 824 pi_d_a4_a10_proc_1 + 824 pi_d_a4_a12_proc_1
      + pi_y1_a4 + pi_y2_a4_proc_1 >= 0
 c17: - pi_p_a3_a5 + pi_p_a5_a8 - pi_d_a0_a5_proc_0 - pi_d_a0_a5_proc_1
      + pi_d_a5_a0_proc_0 + pi_d_a5_a0_proc_1 - pi_d_a1_a5_proc_0
      - pi_d_a1_a5_proc_1 + pi_d_a5_a1_proc_0 + pi_d_a5_a1_proc_1
      - pi_d_a2_a5_proc_0 - pi_d_a2_a5_proc_1 + pi_d_a5_a2_proc_0
      + pi_d_a5_a2_proc_1 - pi_d_a3_a5_proc_0 + pi_d_a5_a3_proc_0
      - pi_d_a4_a5_proc_0 - pi_d_a4_a5_proc_1 + pi_d_a5_a4_proc_0
      + pi_d_a5_a4_proc_1 + pi_d_a5_a6_proc_1 - pi_d_a6_a5_proc_1
      + pi_d_a5_a7_proc_0 + pi_d_a5_a7_proc_1 - pi_d_a7_a5_proc_0
      - pi_d_a7_a5_proc_1 + pi_d_a5_a8_proc_0 - pi_d_a8_a5_proc_0
      + pi_d_a5_a9_proc_0 - pi_d_a9_a5_proc_0 + pi_d_a5_a10_proc_1
      - pi_d_a10_a5_proc_1 + pi_d_a5_a11_proc_0 - pi_d_a11_a5_proc_0
      + pi_d_a5_a12_proc_1 - pi_d_a12_a5_proc_1 + pi_d_a5_a13_proc_0
      - pi_d_a13_a5_proc_0 + pi_d_a5_a14_proc_0 - pi_d_a14_a5_proc_0 >= 0
 c18: 1028 pi_p_a5_a8 + 1028 pi_d_a5_a0_proc_0 + 1028 pi_d_a5_a1_proc_0
      + 1028 pi_d_a5_a2_proc_0 + 1028 pi_d_a5_a3_proc_0 + 1028 pi_d_a5_a4_proc_0
      + 1028 pi_d_a5_a7_proc_0 + 1028 pi_d_a5_a8_proc_0 + 1028 pi_d_a5_a9_proc_0
      + 1028 pi_d_a5_a11_proc_0 + 1028 pi_d_a5_a13_proc_0
      + 1028 pi_d_a5_a14_proc_0 + pi_y1_a5 + pi_y2_a5_proc_0 >= 0
 c19: 668 pi_p_a5_a8 + 668 pi_d_a5_a0_proc_1 + 668 pi_d_a5_a1_proc_1
      + 668 pi_d_a5_a2_proc_1 + 668 pi_d_a5_a4_proc_1 + 668 pi_d_a5_a6_proc_1
      + 668 pi_d_a5_a7_proc_1 + 668 pi_d_a5_a10_proc_1 + 668 pi_d_a5_a12_proc_1
      + pi_y1_a5 + pi_y2_a5_proc_1 >= 0
 c20: pi_p_a6_a4 - pi_p_a7_a6 + pi_p_a6_a13 - pi_d_a0_a6_proc_1
      + pi_d_a6_a0_proc_1 - pi_d_a1_a6_proc_1 + pi_d_a6_a1_proc_1
      - pi_d_a2_a6_proc_1 + pi_d_a6_a2_proc_1 - pi_d_a4_a6_proc_1
      + pi_d_a6_a4_proc_1 - pi_d_a5_a6_proc_1 + pi_d_a6_a5_proc_1
      + pi_d_a6_a7_proc_1 - pi_d_a7_a6_proc_1 + pi_d_a6_a10_proc_1
      - pi_d_a10_a6_proc_1 + pi_d_a6_a12_proc_1 - pi_d_a12_a6_proc_1 >= 0
 c21: 1056 pi_p_a6_a4 + 1056 pi_p_a6_a13 + 1056 pi_d_a6_a0_proc_1
      + 1056 pi_d_a6_a1_proc_1 + 1056 pi_d_a6_a2_proc_1 + 1056 pi_d_a6_a4_proc_1
      + 1056 pi_d_a6_a5_proc_1 + 1056 pi_d_a6_a7_proc_1
      + 1056 pi_d_a6_a10_proc_1 + 1056 pi_d_a6_a12_proc_1 + pi_y1_a6
      + pi_y2_a6_proc_1 >= 0
 c22: pi_p_a7_a6 - pi_p_a12_a7 - pi_p_a13_a7 + pi_p_a7_a2 - pi_d_a0_a7_proc_0
      - pi_d_a0_a7_proc_1 + pi_d_a7_a0_proc_0 + pi_d_a7_a0_proc_1
      - pi_d_a1_a7_proc_0 - pi_d_a1_a7_proc_1 + pi_d_a7_a1_proc_0
      + pi_d_a7_a1_proc_1 - pi_d_a2_a7_proc_0 - pi_d_a2_a7_proc_1
      + pi_d_a7_a2_proc_0 + pi_d_a7_a2_proc_1 - pi_d_a3_a7_proc_0
      + pi_d_a7_a3_proc_0 - pi_d_a4_a7_proc_0 - pi_d_a4_a7_proc_1
      + pi_d_a7_a4_proc_0 + pi_d_a7_a4_proc_1 - pi_d_a5_a7_proc_0
      - pi_d_a5_a7_proc_1 + pi_d_a7_a5_proc_0 + pi_d_a7_a5_proc_1
      - pi_d_a6_a7_proc_1 + pi_d_a7_a6_proc_1 + pi_d_a7_a8_proc_0
      - pi_d_a8_a7_proc_0 + pi_d_a7_a9_proc_0 - pi_d_a9_a7_proc_0
      + pi_d_a7_a10_proc_1 - pi_d_a10_a7_proc_1 + pi_d_a7_a11_proc_0
      - pi_d_a11_a7_proc_0 + pi_d_a7_a12_proc_1 - pi_d_a12_a7_proc_1
      + pi_d_a7_a13_proc_0 - pi_d_a13_a7_proc_0 + pi_d_a7_a14_proc_0
      - pi_d_a14_a7_proc_0 >= 0
 c23: 1187 pi_p_a7_a6 + 1187 pi_p_a7_a2 + 1187 pi_d_a7_a0_proc_0
      + 1187 pi_d_a7_a1_proc_0 + 1187 pi_d_a7_a2_proc_0 + 1187 pi_d_a7_a3_proc_0
      + 1187 pi_d_a7_a4_proc_0 + 1187 pi_d_a7_a5_proc_0 + 1187 pi_d_a7_a8_proc_0
      + 1187 pi_d_a7_a9_proc_0 + 1187 pi_d_a7_a11_proc_0
      + 1187 pi_d_a7_a13_proc_0 + 1187 pi_d_a7_a14_proc_0 + pi_y1_a7
      + pi_y2_a7_proc_0 >= 0
 c24: 720 pi_p_a7_a6 + 720 pi_p_a7_a2 + 720 pi_d_a7_a0_proc_1
      + 720 pi_d_a7_a1_proc_1 + 720 pi_d_a7_a2_proc_1 + 720 pi_d_a7_a4_proc_1
      + 720 pi_d_a7_a5_proc_1 + 720 pi_d_a7_a6_proc_1 + 720 pi_d_a7_a10_proc_1
      + 720 pi_d_a7_a12_proc_1 + pi_y1_a7 + pi_y2_a7_proc_1 >= 0
 c25: - pi_p_a5_a8 + pi_p_a8_a10 - pi_d_a0_a8_proc_0 + pi_d_a8_a0_proc_0
      - pi_d_a1_a8_proc_0 + pi_d_a8_a1_proc_0 - pi_d_a2_a8_proc_0
      + pi_d_a8_a2_proc_0 - pi_d_a3_a8_proc_0 + pi_d_a8_a3_proc_0
      - pi_d_a4_a8_proc_0 + pi_d_a8_a4_proc_0 - pi_d_a5_a8_proc_0
      + pi_d_a8_a5_proc_0 - pi_d_a7_a8_proc_0 + pi_d_a8_a7_proc_0
      + pi_d_a8_a9_proc_0 - pi_d_a9_a8_proc_0 + pi_d_a8_a11_proc_0
      - pi_d_a11_a8_proc_0 + pi_d_a8_a13_proc_0 - pi_d_a13_a8_proc_0
      + pi_d_a8_a14_proc_0 - pi_d_a14_a8_proc_0 >= 0
 c26: 928 pi_p_a8_a10 + 928 pi_d_a8_a0_proc_0 + 928 pi_d_a8_a1_proc_0
      + 928 pi_d_a8_a2_proc_0 + 928 pi_d_a8_a3_proc_0 + 928 pi_d_a8_a4_proc_0
      + 928 pi_d_a8_a5_proc_0 + 928 pi_d_a8_a7_proc_0 + 928 pi_d_a8_a9_proc_0
      + 928 pi_d_a8_a11_proc_0 + 928 pi_d_a8_a13_proc_0 + 928 pi_d_a8_a14_proc_0
      + pi_y1_a8 + pi_y2_a8_proc_0 >= 0
 c27: - pi_p_a3_a9 + pi_p_a9_a11 - pi_p_a14_a9 + pi_p_a9_a4 + pi_p_a9_a10
      - pi_d_a0_a9_proc_0 + pi_d_a9_a0_proc_0 - pi_d_a1_a9_proc_0
      + pi_d_a9_a1_proc_0 - pi_d_a2_a9_proc_0 + pi_d_a9_a2_proc_0
      - pi_d_a3_a9_proc_0 + pi_d_a9_a3_proc_0 - pi_d_a4_a9_proc_0
      + pi_d_a9_a4_proc_0 - pi_d_a5_a9_proc_0 + pi_d_a9_a5_proc_0
      - pi_d_a7_a9_proc_0 + pi_d_a9_a7_proc_0 - pi_d_a8_a9_proc_0
      + pi_d_a9_a8_proc_0 + pi_d_a9_a11_proc_0 - pi_d_a11_a9_proc_0
      + pi_d_a9_a13_proc_0 - pi_d_a13_a9_proc_0 + pi_d_a9_a14_proc_0
      - pi_d_a14_a9_proc_0 >= 0
 c28: 1203 pi_p_a9_a11 + 1203 pi_p_a9_a4 + 1203 pi_p_a9_a10
      + 1203 pi_d_a9_a0_proc_0 + 1203 pi_d_a9_a1_proc_0 + 1203 pi_d_a9_a2_proc_0
      + 1203 pi_d_a9_a3_proc_0 + 1203 pi_d_a9_a4_proc_0 + 1203 pi_d_a9_a5_proc_0
      + 1203 pi_d_a9_a7_proc_0 + 1203 pi_d_a9_a8_proc_0
      + 1203 pi_d_a9_a11_proc_0 + 1203 pi_d_a9_a13_proc_0
      + 1203 pi_d_a9_a14_proc_0 + pi_y1_a9 + pi_y2_a9_proc_0 >= 0
 c29: pi_p_a10_a4 - pi_p_a11_a10 - pi_p_a8_a10 - pi_p_a9_a10
      - pi_d_a0_a10_proc_1 + pi_d_a10_a0_proc_1 - pi_d_a1_a10_proc_1
      + pi_d_a10_a1_proc_1 - pi_d_a2_a10_proc_1 + pi_d_a10_a2_proc_1
      - pi_d_a4_a10_proc_1 + pi_d_a10_a4_proc_1 - pi_d_a5_a10_proc_1
      + pi_d_a10_a5_proc_1 - pi_d_a6_a10_proc_1 + pi_d_a10_a6_proc_1
      - pi_d_a7_a10_proc_1 + pi_d_a10_a7_proc_1 + pi_d_a10_a12_proc_1
      - pi_d_a12_a10_proc_1 >= 0
 c30: 1277 pi_p_a10_a4 + 1277 pi_d_a10_a0_proc_1 + 1277 pi_d_a10_a1_proc_1
      + 1277 pi_d_a10_a2_proc_1 + 1277 pi_d_a10_a4_proc_1
      + 1277 pi_d_a10_a5_proc_1 + 1277 pi_d_a10_a6_proc_1
      + 1277 pi_d_a10_a7_proc_1 + 1277 pi_d_a10_a12_proc_1 + pi_y1_a10
      + pi_y2_a10_proc_1 >= 0
 c31: - pi_p_a9_a11 + pi_p_a11_a10 + pi_p_a11_a14 - pi_d_a0_a11_proc_0
      + pi_d_a11_a0_proc_0 - pi_d_a1_a11_proc_0 + pi_d_a11_a1_proc_0
      - pi_d_a2_a11_proc_0 + pi_d_a11_a2_proc_0 - pi_d_a3_a11_proc_0
      + pi_d_a11_a3_proc_0 - pi_d_a4_a11_proc_0 + pi_d_a11_a4_proc_0
      - pi_d_a5_a11_proc_0 + pi_d_a11_a5_proc_0 - pi_d_a7_a11_proc_0
      + pi_d_a11_a7_proc_0 - pi_d_a8_a11_proc_0 + pi_d_a11_a8_proc_0
      - pi_d_a9_a11_proc_0 + pi_d_a11_a9_proc_0 + pi_d_a11_a13_proc_0
      - pi_d_a13_a11_proc_0 + pi_d_a11_a14_proc_0 - pi_d_a14_a11_proc_0 >= 0
 c32: 1138 pi_p_a11_a10 + 1138 pi_p_a11_a14 + 1138 pi_d_a11_a0_proc_0
      + 1138 pi_d_a11_a1_proc_0 + 1138 pi_d_a11_a2_proc_0
      + 1138 pi_d_a11_a3_proc_0 + 1138 pi_d_a11_a4_proc_0
      + 1138 pi_d_a11_a5_proc_0 + 1138 pi_d_a11_a7_proc_0
      + 1138 pi_d_a11_a8_proc_0 + 1138 pi_d_a11_a9_proc_0
      + 1138 pi_d_a11_a13_proc_0 + 1138 pi_d_a11_a14_proc_0 + pi_y1_a11
      + pi_y2_a11_proc_0 >= 0
 c33: pi_p_a12_a7 - pi_p_a14_a12 - pi_p_a13_a12 - pi_d_a0_a12_proc_1
      + pi_d_a12_a0_proc_1 - pi_d_a1_a12_proc_1 + pi_d_a12_a1_proc_1
      - pi_d_a2_a12_proc_1 + pi_d_a12_a2_proc_1 - pi_d_a4_a12_proc_1
      + pi_d_a12_a4_proc_1 - pi_d_a5_a12_proc_1 + pi_d_a12_a5_proc_1
      - pi_d_a6_a12_proc_1 + pi_d_a12_a6_proc_1 - pi_d_a7_a12_proc_1
      + pi_d_a12_a7_proc_1 - pi_d_a10_a12_proc_1 + pi_d_a12_a10_proc_1 >= 0
 c34: 1105 pi_p_a12_a7 + 1105 pi_d_a12_a0_proc_1 + 1105 pi_d_a12_a1_proc_1
      + 1105 pi_d_a12_a2_proc_1 + 1105 pi_d_a12_a4_proc_1
      + 1105 pi_d_a12_a5_proc_1 + 1105 pi_d_a12_a6_proc_1
      + 1105 pi_d_a12_a7_proc_1 + 1105 pi_d_a12_a10_proc_1 + pi_y1_a12
      + pi_y2_a12_proc_1 >= 0
 c35: - pi_p_a6_a13 + pi_p_a13_a12 + pi_p_a13_a7 - pi_d_a0_a13_proc_0
      + pi_d_a13_a0_proc_0 - pi_d_a1_a13_proc_0 + pi_d_a13_a1_proc_0
      - pi_d_a2_a13_proc_0 + pi_d_a13_a2_proc_0 - pi_d_a3_a13_proc_0
      + pi_d_a13_a3_proc_0 - pi_d_a4_a13_proc_0 + pi_d_a13_a4_proc_0
      - pi_d_a5_a13_proc_0 + pi_d_a13_a5_proc_0 - pi_d_a7_a13_proc_0
      + pi_d_a13_a7_proc_0 - pi_d_a8_a13_proc_0 + pi_d_a13_a8_proc_0
      - pi_d_a9_a13_proc_0 + pi_d_a13_a9_proc_0 - pi_d_a11_a13_proc_0
      + pi_d_a13_a11_proc_0 + pi_d_a13_a14_proc_0 - pi_d_a14_a13_proc_0 >= 0
 c36: 749 pi_p_a13_a13 + 749 pi_p_a13_a12 + 749 pi_p_a13_a7
      + 749 pi_d_a13_a0_proc_0 + 749 pi_d_a13_a1_proc_0 + 749 pi_d_a13_a2_proc_0
      + 749 pi_d_a13_a3_proc_0 + 749 pi_d_a13_a4_proc_0 + 749 pi_d_a13_a5_proc_0
      + 749 pi_d_a13_a7_proc_0 + 749 pi_d_a13_a8_proc_0 + 749 pi_d_a13_a9_proc_0
      + 749 pi_d_a13_a11_proc_0 + 749 pi_d_a13_a14_proc_0 + pi_y1_a13
      + pi_y2_a13_proc_0 >= 0
 c37: pi_p_a14_a9 + pi_p_a14_a12 - pi_p_a11_a14 - pi_d_a0_a14_proc_0
      + pi_d_a14_a0_proc_0 - pi_d_a1_a14_proc_0 + pi_d_a14_a1_proc_0
      - pi_d_a2_a14_proc_0 + pi_d_a14_a2_proc_0 - pi_d_a3_a14_proc_0
      + pi_d_a14_a3_proc_0 - pi_d_a4_a14_proc_0 + pi_d_a14_a4_proc_0
      - pi_d_a5_a14_proc_0 + pi_d_a14_a5_proc_0 - pi_d_a7_a14_proc_0
      + pi_d_a14_a7_proc_0 - pi_d_a8_a14_proc_0 + pi_d_a14_a8_proc_0
      - pi_d_a9_a14_proc_0 + pi_d_a14_a9_proc_0 - pi_d_a11_a14_proc_0
      + pi_d_a14_a11_proc_0 - pi_d_a13_a14_proc_0 + pi_d_a14_a13_proc_0 >= 0
 c38: 1042 pi_p_a14_a9 + 1042 pi_p_a14_a12 + 1042 pi_d_a14_a0_proc_0
      + 1042 pi_d_a14_a1_proc_0 + 1042 pi_d_a14_a2_proc_0
      + 1042 pi_d_a14_a3_proc_0 + 1042 pi_d_a14_a4_proc_0
      + 1042 pi_d_a14_a5_proc_0 + 1042 pi_d_a14_a7_proc_0
      + 1042 pi_d_a14_a8_proc_0 + 1042 pi_d_a14_a9_proc_0
      + 1042 pi_d_a14_a11_proc_0 + 1042 pi_d_a14_a13_proc_0 + pi_y1_a14
      + pi_y2_a14_proc_0 >= 0

Bounds
       pi_y1_a0 Free
       pi_y1_a1 Free
       pi_y1_a2 Free
       pi_y1_a3 Free
       pi_y1_a4 Free
       pi_y1_a5 Free
       pi_y1_a6 Free
       pi_y1_a7 Free
       pi_y1_a8 Free
       pi_y1_a9 Free
       pi_y1_a10 Free
       pi_y1_a11 Free
       pi_y1_a12 Free
       pi_y1_a13 Free
       pi_y1_a14 Free
End
